c description: Random 3-CNF over 23 variables and 98 clauses
c generator: CNFgen (0.9.2)
c copyright: (C) 2012-2022 Massimo Lauria <massimo.lauria@uniroma1.it>
c url: https://massimolauria.net/cnfgen
c command line: cnfgen --output CNF_4.28/23_bit_98_18.cnf randkcnf 3 23 98
c
p cnf 23 98
-7 19 -20 0
3 6 15 0
6 7 15 0
11 -15 -18 0
3 10 -23 0
-1 -7 21 0
-5 -8 16 0
-6 18 23 0
6 -10 18 0
9 16 20 0
14 -15 17 0
4 -18 -19 0
7 -12 20 0
-1 -7 15 0
-4 13 18 0
2 -14 -18 0
-6 17 -19 0
2 -4 12 0
-3 -4 -11 0
4 -12 23 0
6 14 -20 0
3 8 15 0
4 15 21 0
-1 -9 11 0
7 -8 -18 0
7 15 18 0
6 -10 17 0
-7 13 -23 0
-8 11 21 0
-9 14 16 0
9 18 -21 0
-4 19 -23 0
-3 -8 14 0
-11 12 18 0
5 10 -21 0
-4 13 22 0
-4 10 13 0
-10 13 21 0
-2 -14 22 0
-14 -16 18 0
-10 -18 19 0
12 -13 -15 0
-5 -6 -20 0
1 5 20 0
-4 6 -15 0
-2 16 23 0
-2 -9 13 0
9 12 17 0
-7 10 14 0
1 -12 -17 0
8 9 -13 0
-7 9 -14 0
-12 20 -21 0
-7 9 14 0
-3 16 20 0
7 17 20 0
1 -9 22 0
3 6 20 0
-2 -8 -19 0
10 14 -23 0
-11 12 -23 0
-8 -10 -15 0
3 16 19 0
-5 11 18 0
-9 -12 -21 0
3 -6 -14 0
-1 -4 -10 0
1 -4 16 0
-6 -13 -20 0
-10 -12 -15 0
2 3 -15 0
11 12 -13 0
-3 -11 18 0
-4 7 -13 0
6 10 21 0
10 -12 22 0
-8 -16 19 0
-5 -15 -21 0
-12 -19 21 0
-6 -8 -19 0
6 -14 -18 0
1 -21 -23 0
-2 -9 21 0
8 -12 22 0
-6 7 -17 0
7 14 22 0
2 8 -15 0
7 15 20 0
-5 7 -16 0
-1 9 -11 0
1 -7 15 0
-3 11 -16 0
-9 15 -22 0
-4 8 -20 0
-2 -19 -21 0
2 16 21 0
-1 -15 -21 0
3 13 -16 0
